
n_res = 6;
rcap = [19, 19, 21, 22, 833, 854];
rtype = [1, 1, 1, 1, 2, 2];
n_tasks = 50;
modes =  [{1, 2, 3}, {4, 5, 6}, {7, 8, 9}, {10, 11, 12}, {13, 14, 15}, {16, 17, 18}, {19, 20, 21}, {22, 23, 24}, {25, 26, 27}, {28, 29, 30}, {31, 32, 33}, {34, 35, 36}, {37, 38, 39}, {40, 41, 42}, {43, 44, 45}, {46, 47, 48}, {49, 50, 51}, {52, 53, 54}, {55, 56, 57}, {58, 59, 60}, {61, 62, 63}, {64, 65, 66}, {67, 68, 69}, {70, 71, 72}, {73, 74, 75}, {76, 77, 78}, {79, 80, 81}, {82, 83, 84}, {85, 86, 87}, {88, 89, 90}, {91, 92, 93}, {94, 95, 96}, {97, 98, 99}, {100, 101, 102}, {103, 104, 105}, {106, 107, 108}, {109, 110, 111}, {112, 113, 114}, {115, 116, 117}, {118, 119, 120}, {121, 122, 123}, {124, 125, 126}, {127, 128, 129}, {130, 131, 132}, {133, 134, 135}, {136, 137, 138}, {139, 140, 141}, {142, 143, 144}, {145, 146, 147}, {148, 149, 150}];
succ =  [{26, 18, 17, 16, 10, 7}, {31, 22, 19, 15, 14, 12}, {21, 20, 10, 7}, {30, 27, 23, 21, 19, 18}, {31, 15, 9}, {39, 31, 30, 27, 25, 22, 21}, {33, 30, 28, 27, 22, 19}, {33, 32, 30, 29, 28, 27, 24, 19}, {49, 33, 32, 28, 27, 19}, {33, 31, 27, 24, 22}, {47, 39, 36, 34, 29, 28, 26, 25, 24}, {50, 39, 36, 33, 30, 27, 23}, {49, 39, 36, 33, 31, 28, 27, 25}, {39, 36, 30, 29, 24, 23}, {47, 39, 34, 21}, {50, 49, 48, 39, 29, 27, 23}, {49, 46, 36, 35, 34, 33, 32, 28}, {39, 36, 34, 33, 29, 28}, {50, 48, 47, 46, 39, 36, 34, 25}, {50, 49, 48, 46, 34, 32, 25}, {36, 29, 28, 24}, {49, 29, 23}, {46, 41, 37, 34, 32}, {49, 48, 46, 45, 43, 42, 41, 38, 37}, {45, 44, 43, 42, 38, 35}, {46, 44, 43, 42, 38, 35}, {47, 46, 45, 44, 43, 42, 41, 40}, {50, 48, 45, 44, 43, 41, 37}, {44, 42, 38, 35}, {49, 43, 38, 35}, {50, 46, 44, 42, 41, 40}, {47, 45, 44, 43, 40}, {48, 47, 45, 42, 40}, {43, 42, 40}, {41, 37}, {37}, {40}, {40}, {40}, {}, {}, {}, {}, {}, {}, {}, {}, {}, {}, {}];
n_opt = 150;
dur = [13, 14, 17, 13, 18, 24, 5, 14, 16, 17, 25, 26, 4, 15, 16, 1, 3, 5, 3, 11, 12, 14, 18, 20, 14, 17, 20, 6, 9, 28, 2, 13, 29, 1, 16, 27, 17, 26, 28, 5, 10, 14, 2, 3, 29, 15, 19, 20, 3, 21, 29, 2, 3, 4, 13, 26, 29, 1, 4, 14, 7, 21, 25, 1, 3, 21, 15, 16, 28, 4, 17, 28, 1, 7, 11, 12, 13, 17, 1, 4, 21, 17, 23, 26, 19, 20, 22, 7, 17, 30, 5, 14, 21, 5, 9, 17, 8, 15, 20, 8, 25, 27, 11, 13, 27, 6, 7, 30, 8, 19, 22, 13, 15, 20, 8, 23, 24, 1, 25, 28, 2, 10, 27, 12, 25, 26, 13, 20, 24, 19, 24, 26, 6, 12, 24, 16, 20, 23, 3, 6, 22, 6, 16, 29, 9, 15, 23, 8, 9, 14];
rreq = [|3, 2, 2, 4, 4, 2, 2, 1, 1, 4, 4, 3, 4, 3, 3, 3, 3, 3, 5, 2, 1, 4, 3, 3, 2, 2, 2, 3, 2, 1, 4, 2, 2, 3, 3, 3, 2, 2, 1, 4, 2, 1, 3, 3, 3, 4, 4, 4, 1, 1, 1, 3, 3, 3, 3, 3, 3, 4, 3, 1, 4, 3, 1, 5, 3, 3, 5, 4, 4, 3, 3, 1, 2, 2, 2, 5, 4, 4, 3, 3, 3, 3, 3, 1, 4, 3, 3, 4, 4, 3, 1, 1, 1, 2, 2, 2, 4, 3, 3, 2, 2, 1, 5, 3, 2, 4, 3, 2, 3, 2, 2, 3, 2, 1, 2, 1, 1, 4, 3, 3, 2, 2, 2, 5, 4, 4, 3, 3, 3, 4, 3, 3, 4, 3, 2, 4, 4, 4, 4, 3, 1, 3, 3, 2, 5, 3, 3, 1, 1, 1
 |3, 3, 3, 5, 4, 4, 5, 4, 4, 3, 2, 2, 2, 2, 2, 3, 2, 2, 1, 1, 1, 3, 2, 2, 3, 2, 2, 5, 4, 4, 4, 3, 3, 3, 3, 2, 1, 1, 1, 2, 2, 2, 5, 3, 2, 4, 4, 3, 5, 4, 2, 4, 3, 2, 4, 3, 3, 5, 3, 3, 3, 3, 3, 5, 3, 3, 3, 3, 3, 4, 3, 3, 3, 3, 3, 5, 5, 5, 4, 4, 4, 2, 1, 1, 3, 2, 2, 3, 2, 1, 2, 2, 2, 2, 2, 1, 3, 3, 3, 1, 1, 1, 3, 3, 1, 4, 4, 4, 4, 3, 2, 3, 3, 1, 4, 3, 2, 1, 1, 1, 4, 4, 4, 2, 1, 1, 3, 3, 2, 4, 4, 4, 4, 4, 2, 5, 4, 4, 4, 3, 3, 4, 2, 2, 4, 3, 3, 5, 4, 3
 |5, 5, 5, 3, 3, 3, 4, 4, 4, 5, 4, 3, 1, 1, 1, 3, 2, 1, 4, 2, 2, 3, 3, 3, 3, 2, 2, 2, 1, 1, 1, 1, 1, 3, 3, 3, 2, 2, 2, 4, 3, 3, 5, 3, 3, 3, 1, 1, 5, 5, 5, 5, 3, 2, 5, 3, 1, 4, 3, 2, 3, 2, 2, 2, 2, 1, 3, 3, 3, 5, 5, 5, 4, 4, 4, 4, 4, 3, 3, 3, 2, 5, 4, 4, 3, 2, 1, 2, 1, 1, 2, 1, 1, 3, 1, 1, 2, 1, 1, 5, 3, 1, 1, 1, 1, 3, 2, 1, 1, 1, 1, 5, 3, 3, 5, 4, 4, 4, 4, 4, 4, 3, 3, 4, 4, 3, 4, 3, 3, 2, 2, 2, 3, 1, 1, 3, 3, 2, 1, 1, 1, 2, 2, 2, 3, 3, 3, 3, 2, 2
 |1, 1, 1, 3, 3, 3, 4, 2, 2, 4, 3, 3, 1, 1, 1, 2, 2, 2, 5, 5, 5, 3, 2, 1, 5, 4, 4, 5, 4, 4, 4, 2, 2, 4, 4, 4, 4, 3, 2, 2, 1, 1, 3, 3, 1, 4, 2, 1, 4, 4, 4, 4, 4, 3, 4, 3, 1, 4, 2, 1, 4, 3, 2, 1, 1, 1, 2, 2, 2, 2, 2, 1, 3, 3, 3, 4, 2, 2, 4, 4, 3, 3, 3, 1, 2, 2, 2, 5, 5, 5, 3, 3, 1, 3, 3, 3, 2, 1, 1, 4, 3, 3, 2, 1, 1, 3, 3, 3, 2, 1, 1, 5, 3, 3, 3, 3, 3, 5, 3, 3, 4, 4, 4, 3, 2, 2, 3, 3, 2, 4, 3, 3, 3, 3, 2, 3, 2, 2, 4, 4, 2, 4, 3, 3, 4, 2, 2, 3, 3, 3
 |16, 14, 13, 28, 27, 27, 20, 12, 9, 15, 14, 13, 9, 8, 8, 22, 20, 20, 6, 2, 1, 14, 14, 14, 22, 17, 15, 27, 26, 18, 20, 19, 10, 22, 20, 16, 14, 8, 3, 29, 25, 23, 23, 18, 14, 8, 6, 3, 22, 14, 8, 8, 7, 6, 18, 14, 8, 23, 16, 4, 27, 26, 23, 20, 16, 14, 10, 7, 4, 20, 12, 7, 29, 29, 29, 27, 27, 25, 16, 16, 14, 19, 17, 15, 23, 22, 20, 11, 11, 11, 13, 12, 12, 20, 19, 19, 14, 11, 6, 24, 19, 11, 4, 4, 4, 17, 14, 14, 17, 13, 11, 15, 15, 15, 14, 12, 9, 27, 24, 23, 7, 5, 3, 25, 17, 8, 25, 21, 20, 23, 22, 22, 13, 12, 12, 8, 7, 5, 17, 9, 4, 28, 23, 14, 5, 4, 1, 19, 17, 17
 |21, 17, 15, 22, 21, 19, 13, 7, 4, 25, 17, 12, 12, 12, 5, 21, 21, 21, 15, 14, 14, 22, 12, 7, 19, 19, 19, 11, 10, 9, 19, 18, 13, 17, 12, 9, 9, 9, 9, 15, 11, 2, 18, 14, 10, 22, 21, 16, 22, 15, 9, 26, 24, 24, 24, 13, 5, 23, 18, 16, 22, 12, 7, 20, 15, 10, 27, 24, 19, 8, 5, 4, 29, 25, 23, 27, 27, 27, 21, 12, 6, 21, 15, 8, 12, 11, 10, 16, 14, 12, 26, 17, 7, 28, 24, 20, 17, 12, 7, 17, 14, 13, 23, 23, 14, 23, 11, 2, 17, 17, 17, 12, 9, 5, 13, 6, 4, 27, 26, 24, 20, 13, 7, 23, 13, 5, 12, 10, 7, 18, 7, 6, 20, 8, 3, 9, 9, 6, 17, 8, 6, 18, 8, 2, 15, 14, 13, 22, 19, 16|];